 Ti_svV_sv.70
 -59.343500
    0.50000000000000   0.50000000000000   0.50000000000000
   -0.50000000000000  -0.50000000000000   0.50000000000000
    2.00000000000000  -2.00000000000000   0.00000000000000
 1 3 
 Direct(4) [A1B3] 
    0.00000000000000   0.00000000000000   0.00000000000000  Ti_sv+5 
    0.00000000000000   0.00000000000000   0.50000000000000  V_sv+5 
    0.50000000000000   0.50000000000000   0.25000000000000  V_sv+5 
    0.50000000000000   0.50000000000000   0.75000000000000  V_sv+5 
